c User generated cnf file
p cnf 7 34
-6 3 1 0 
-3 5 1 0 
1 -4 3 0 
6 3 -5 0 
-7 7 1 0 
1 1 -7 0 
7 6 -5 0 
2 5 -4 0 
5 -2 7 0 
1 -6 7 0 
7 7 -3 0 
3 3 -2 0 
1 -2 5 0 
1 5 -2 0 
-1 1 2 0 
3 -3 6 0 
6 7 -2 0 
-6 3 6 0 
6 -1 2 0 
2 -2 1 0 
-5 3 1 0 
2 4 -1 0 
-2 7 5 0 
1 -5 3 0 
2 3 -5 0 
3 3 -5 0 
3 1 -1 0 
5 -5 6 0 
7 3 -1 0 
2 -6 6 0 
-3 6 4 0 
4 -5 1 0 
-4 4 2 0 
5 7 -1 0 
